p cnf 24 47
-1 -2 0
-3 -4 0
-5 -6 0
-7 -2 0
-8 -4 0
-9 -6 0
-7 -1 0
-8 -3 0
-9 -5 0
-10 -1 0
-11 -3 0
-12 -5 0
-10 -7 0
-11 -8 0
-12 -9 0
-13 -10 0
-14 -11 0
-15 -12 0
-16 -2 0
-17 -4 0
-18 -6 0
-16 -7 0
-17 -8 0
-18 -9 0
-16 -10 0
-17 -11 0
-18 -12 0
-19 -13 0
-20 -14 0
-21 -15 0
-19 -16 0
-20 -17 0
-21 -18 0
-22 -16 0
-23 -17 0
-24 -18 0
-22 -19 0
-23 -20 0
-24 -21 0
6 4 2 0
5 3 1 0
9 8 7 0
12 11 10 0
15 14 13 0
18 17 16 0
21 20 19 0
24 23 22 0